p cnf 0 0
1 2 3 4 5 6 7 8 0
9 10 11 12 13 14 15 16 0
17 18 19 20 21 22 23 24 0
25 26 27 28 29 30 31 32 0
33 34 35 36 37 38 39 40 0
41 42 43 44 45 46 47 48 0
49 50 51 52 53 54 55 56 0
57 58 59 60 61 62 63 64 0
-1 -2 0
-1 -3 0
-1 -4 0
-1 -5 0
-1 -6 0
-1 -7 0
-1 -8 0
-2 -1 0
-2 -3 0
-2 -4 0
-2 -5 0
-2 -6 0
-2 -7 0
-2 -8 0
-3 -1 0
-3 -2 0
-3 -4 0
-3 -5 0
-3 -6 0
-3 -7 0
-3 -8 0
-4 -1 0
-4 -2 0
-4 -3 0
-4 -5 0
-4 -6 0
-4 -7 0
-4 -8 0
-5 -1 0
-5 -2 0
-5 -3 0
-5 -4 0
-5 -6 0
-5 -7 0
-5 -8 0
-6 -1 0
-6 -2 0
-6 -3 0
-6 -4 0
-6 -5 0
-6 -7 0
-6 -8 0
-7 -1 0
-7 -2 0
-7 -3 0
-7 -4 0
-7 -5 0
-7 -6 0
-7 -8 0
-8 -1 0
-8 -2 0
-8 -3 0
-8 -4 0
-8 -5 0
-8 -6 0
-8 -7 0
-9 -10 0
-9 -11 0
-9 -12 0
-9 -13 0
-9 -14 0
-9 -15 0
-9 -16 0
-10 -9 0
-10 -11 0
-10 -12 0
-10 -13 0
-10 -14 0
-10 -15 0
-10 -16 0
-11 -9 0
-11 -10 0
-11 -12 0
-11 -13 0
-11 -14 0
-11 -15 0
-11 -16 0
-12 -9 0
-12 -10 0
-12 -11 0
-12 -13 0
-12 -14 0
-12 -15 0
-12 -16 0
-13 -9 0
-13 -10 0
-13 -11 0
-13 -12 0
-13 -14 0
-13 -15 0
-13 -16 0
-14 -9 0
-14 -10 0
-14 -11 0
-14 -12 0
-14 -13 0
-14 -15 0
-14 -16 0
-15 -9 0
-15 -10 0
-15 -11 0
-15 -12 0
-15 -13 0
-15 -14 0
-15 -16 0
-16 -9 0
-16 -10 0
-16 -11 0
-16 -12 0
-16 -13 0
-16 -14 0
-16 -15 0
-17 -18 0
-17 -19 0
-17 -20 0
-17 -21 0
-17 -22 0
-17 -23 0
-17 -24 0
-18 -17 0
-18 -19 0
-18 -20 0
-18 -21 0
-18 -22 0
-18 -23 0
-18 -24 0
-19 -17 0
-19 -18 0
-19 -20 0
-19 -21 0
-19 -22 0
-19 -23 0
-19 -24 0
-20 -17 0
-20 -18 0
-20 -19 0
-20 -21 0
-20 -22 0
-20 -23 0
-20 -24 0
-21 -17 0
-21 -18 0
-21 -19 0
-21 -20 0
-21 -22 0
-21 -23 0
-21 -24 0
-22 -17 0
-22 -18 0
-22 -19 0
-22 -20 0
-22 -21 0
-22 -23 0
-22 -24 0
-23 -17 0
-23 -18 0
-23 -19 0
-23 -20 0
-23 -21 0
-23 -22 0
-23 -24 0
-24 -17 0
-24 -18 0
-24 -19 0
-24 -20 0
-24 -21 0
-24 -22 0
-24 -23 0
-25 -26 0
-25 -27 0
-25 -28 0
-25 -29 0
-25 -30 0
-25 -31 0
-25 -32 0
-26 -25 0
-26 -27 0
-26 -28 0
-26 -29 0
-26 -30 0
-26 -31 0
-26 -32 0
-27 -25 0
-27 -26 0
-27 -28 0
-27 -29 0
-27 -30 0
-27 -31 0
-27 -32 0
-28 -25 0
-28 -26 0
-28 -27 0
-28 -29 0
-28 -30 0
-28 -31 0
-28 -32 0
-29 -25 0
-29 -26 0
-29 -27 0
-29 -28 0
-29 -30 0
-29 -31 0
-29 -32 0
-30 -25 0
-30 -26 0
-30 -27 0
-30 -28 0
-30 -29 0
-30 -31 0
-30 -32 0
-31 -25 0
-31 -26 0
-31 -27 0
-31 -28 0
-31 -29 0
-31 -30 0
-31 -32 0
-32 -25 0
-32 -26 0
-32 -27 0
-32 -28 0
-32 -29 0
-32 -30 0
-32 -31 0
-33 -34 0
-33 -35 0
-33 -36 0
-33 -37 0
-33 -38 0
-33 -39 0
-33 -40 0
-34 -33 0
-34 -35 0
-34 -36 0
-34 -37 0
-34 -38 0
-34 -39 0
-34 -40 0
-35 -33 0
-35 -34 0
-35 -36 0
-35 -37 0
-35 -38 0
-35 -39 0
-35 -40 0
-36 -33 0
-36 -34 0
-36 -35 0
-36 -37 0
-36 -38 0
-36 -39 0
-36 -40 0
-37 -33 0
-37 -34 0
-37 -35 0
-37 -36 0
-37 -38 0
-37 -39 0
-37 -40 0
-38 -33 0
-38 -34 0
-38 -35 0
-38 -36 0
-38 -37 0
-38 -39 0
-38 -40 0
-39 -33 0
-39 -34 0
-39 -35 0
-39 -36 0
-39 -37 0
-39 -38 0
-39 -40 0
-40 -33 0
-40 -34 0
-40 -35 0
-40 -36 0
-40 -37 0
-40 -38 0
-40 -39 0
-41 -42 0
-41 -43 0
-41 -44 0
-41 -45 0
-41 -46 0
-41 -47 0
-41 -48 0
-42 -41 0
-42 -43 0
-42 -44 0
-42 -45 0
-42 -46 0
-42 -47 0
-42 -48 0
-43 -41 0
-43 -42 0
-43 -44 0
-43 -45 0
-43 -46 0
-43 -47 0
-43 -48 0
-44 -41 0
-44 -42 0
-44 -43 0
-44 -45 0
-44 -46 0
-44 -47 0
-44 -48 0
-45 -41 0
-45 -42 0
-45 -43 0
-45 -44 0
-45 -46 0
-45 -47 0
-45 -48 0
-46 -41 0
-46 -42 0
-46 -43 0
-46 -44 0
-46 -45 0
-46 -47 0
-46 -48 0
-47 -41 0
-47 -42 0
-47 -43 0
-47 -44 0
-47 -45 0
-47 -46 0
-47 -48 0
-48 -41 0
-48 -42 0
-48 -43 0
-48 -44 0
-48 -45 0
-48 -46 0
-48 -47 0
-49 -50 0
-49 -51 0
-49 -52 0
-49 -53 0
-49 -54 0
-49 -55 0
-49 -56 0
-50 -49 0
-50 -51 0
-50 -52 0
-50 -53 0
-50 -54 0
-50 -55 0
-50 -56 0
-51 -49 0
-51 -50 0
-51 -52 0
-51 -53 0
-51 -54 0
-51 -55 0
-51 -56 0
-52 -49 0
-52 -50 0
-52 -51 0
-52 -53 0
-52 -54 0
-52 -55 0
-52 -56 0
-53 -49 0
-53 -50 0
-53 -51 0
-53 -52 0
-53 -54 0
-53 -55 0
-53 -56 0
-54 -49 0
-54 -50 0
-54 -51 0
-54 -52 0
-54 -53 0
-54 -55 0
-54 -56 0
-55 -49 0
-55 -50 0
-55 -51 0
-55 -52 0
-55 -53 0
-55 -54 0
-55 -56 0
-56 -49 0
-56 -50 0
-56 -51 0
-56 -52 0
-56 -53 0
-56 -54 0
-56 -55 0
-57 -58 0
-57 -59 0
-57 -60 0
-57 -61 0
-57 -62 0
-57 -63 0
-57 -64 0
-58 -57 0
-58 -59 0
-58 -60 0
-58 -61 0
-58 -62 0
-58 -63 0
-58 -64 0
-59 -57 0
-59 -58 0
-59 -60 0
-59 -61 0
-59 -62 0
-59 -63 0
-59 -64 0
-60 -57 0
-60 -58 0
-60 -59 0
-60 -61 0
-60 -62 0
-60 -63 0
-60 -64 0
-61 -57 0
-61 -58 0
-61 -59 0
-61 -60 0
-61 -62 0
-61 -63 0
-61 -64 0
-62 -57 0
-62 -58 0
-62 -59 0
-62 -60 0
-62 -61 0
-62 -63 0
-62 -64 0
-63 -57 0
-63 -58 0
-63 -59 0
-63 -60 0
-63 -61 0
-63 -62 0
-63 -64 0
-64 -57 0
-64 -58 0
-64 -59 0
-64 -60 0
-64 -61 0
-64 -62 0
-64 -63 0
-1 -9 0
-1 -17 0
-1 -25 0
-1 -33 0
-1 -41 0
-1 -49 0
-1 -57 0
-9 -1 0
-9 -17 0
-9 -25 0
-9 -33 0
-9 -41 0
-9 -49 0
-9 -57 0
-17 -1 0
-17 -9 0
-17 -25 0
-17 -33 0
-17 -41 0
-17 -49 0
-17 -57 0
-25 -1 0
-25 -9 0
-25 -17 0
-25 -33 0
-25 -41 0
-25 -49 0
-25 -57 0
-33 -1 0
-33 -9 0
-33 -17 0
-33 -25 0
-33 -41 0
-33 -49 0
-33 -57 0
-41 -1 0
-41 -9 0
-41 -17 0
-41 -25 0
-41 -33 0
-41 -49 0
-41 -57 0
-49 -1 0
-49 -9 0
-49 -17 0
-49 -25 0
-49 -33 0
-49 -41 0
-49 -57 0
-57 -1 0
-57 -9 0
-57 -17 0
-57 -25 0
-57 -33 0
-57 -41 0
-57 -49 0
-2 -10 0
-2 -18 0
-2 -26 0
-2 -34 0
-2 -42 0
-2 -50 0
-2 -58 0
-10 -2 0
-10 -18 0
-10 -26 0
-10 -34 0
-10 -42 0
-10 -50 0
-10 -58 0
-18 -2 0
-18 -10 0
-18 -26 0
-18 -34 0
-18 -42 0
-18 -50 0
-18 -58 0
-26 -2 0
-26 -10 0
-26 -18 0
-26 -34 0
-26 -42 0
-26 -50 0
-26 -58 0
-34 -2 0
-34 -10 0
-34 -18 0
-34 -26 0
-34 -42 0
-34 -50 0
-34 -58 0
-42 -2 0
-42 -10 0
-42 -18 0
-42 -26 0
-42 -34 0
-42 -50 0
-42 -58 0
-50 -2 0
-50 -10 0
-50 -18 0
-50 -26 0
-50 -34 0
-50 -42 0
-50 -58 0
-58 -2 0
-58 -10 0
-58 -18 0
-58 -26 0
-58 -34 0
-58 -42 0
-58 -50 0
-3 -11 0
-3 -19 0
-3 -27 0
-3 -35 0
-3 -43 0
-3 -51 0
-3 -59 0
-11 -3 0
-11 -19 0
-11 -27 0
-11 -35 0
-11 -43 0
-11 -51 0
-11 -59 0
-19 -3 0
-19 -11 0
-19 -27 0
-19 -35 0
-19 -43 0
-19 -51 0
-19 -59 0
-27 -3 0
-27 -11 0
-27 -19 0
-27 -35 0
-27 -43 0
-27 -51 0
-27 -59 0
-35 -3 0
-35 -11 0
-35 -19 0
-35 -27 0
-35 -43 0
-35 -51 0
-35 -59 0
-43 -3 0
-43 -11 0
-43 -19 0
-43 -27 0
-43 -35 0
-43 -51 0
-43 -59 0
-51 -3 0
-51 -11 0
-51 -19 0
-51 -27 0
-51 -35 0
-51 -43 0
-51 -59 0
-59 -3 0
-59 -11 0
-59 -19 0
-59 -27 0
-59 -35 0
-59 -43 0
-59 -51 0
-4 -12 0
-4 -20 0
-4 -28 0
-4 -36 0
-4 -44 0
-4 -52 0
-4 -60 0
-12 -4 0
-12 -20 0
-12 -28 0
-12 -36 0
-12 -44 0
-12 -52 0
-12 -60 0
-20 -4 0
-20 -12 0
-20 -28 0
-20 -36 0
-20 -44 0
-20 -52 0
-20 -60 0
-28 -4 0
-28 -12 0
-28 -20 0
-28 -36 0
-28 -44 0
-28 -52 0
-28 -60 0
-36 -4 0
-36 -12 0
-36 -20 0
-36 -28 0
-36 -44 0
-36 -52 0
-36 -60 0
-44 -4 0
-44 -12 0
-44 -20 0
-44 -28 0
-44 -36 0
-44 -52 0
-44 -60 0
-52 -4 0
-52 -12 0
-52 -20 0
-52 -28 0
-52 -36 0
-52 -44 0
-52 -60 0
-60 -4 0
-60 -12 0
-60 -20 0
-60 -28 0
-60 -36 0
-60 -44 0
-60 -52 0
-5 -13 0
-5 -21 0
-5 -29 0
-5 -37 0
-5 -45 0
-5 -53 0
-5 -61 0
-13 -5 0
-13 -21 0
-13 -29 0
-13 -37 0
-13 -45 0
-13 -53 0
-13 -61 0
-21 -5 0
-21 -13 0
-21 -29 0
-21 -37 0
-21 -45 0
-21 -53 0
-21 -61 0
-29 -5 0
-29 -13 0
-29 -21 0
-29 -37 0
-29 -45 0
-29 -53 0
-29 -61 0
-37 -5 0
-37 -13 0
-37 -21 0
-37 -29 0
-37 -45 0
-37 -53 0
-37 -61 0
-45 -5 0
-45 -13 0
-45 -21 0
-45 -29 0
-45 -37 0
-45 -53 0
-45 -61 0
-53 -5 0
-53 -13 0
-53 -21 0
-53 -29 0
-53 -37 0
-53 -45 0
-53 -61 0
-61 -5 0
-61 -13 0
-61 -21 0
-61 -29 0
-61 -37 0
-61 -45 0
-61 -53 0
-6 -14 0
-6 -22 0
-6 -30 0
-6 -38 0
-6 -46 0
-6 -54 0
-6 -62 0
-14 -6 0
-14 -22 0
-14 -30 0
-14 -38 0
-14 -46 0
-14 -54 0
-14 -62 0
-22 -6 0
-22 -14 0
-22 -30 0
-22 -38 0
-22 -46 0
-22 -54 0
-22 -62 0
-30 -6 0
-30 -14 0
-30 -22 0
-30 -38 0
-30 -46 0
-30 -54 0
-30 -62 0
-38 -6 0
-38 -14 0
-38 -22 0
-38 -30 0
-38 -46 0
-38 -54 0
-38 -62 0
-46 -6 0
-46 -14 0
-46 -22 0
-46 -30 0
-46 -38 0
-46 -54 0
-46 -62 0
-54 -6 0
-54 -14 0
-54 -22 0
-54 -30 0
-54 -38 0
-54 -46 0
-54 -62 0
-62 -6 0
-62 -14 0
-62 -22 0
-62 -30 0
-62 -38 0
-62 -46 0
-62 -54 0
-7 -15 0
-7 -23 0
-7 -31 0
-7 -39 0
-7 -47 0
-7 -55 0
-7 -63 0
-15 -7 0
-15 -23 0
-15 -31 0
-15 -39 0
-15 -47 0
-15 -55 0
-15 -63 0
-23 -7 0
-23 -15 0
-23 -31 0
-23 -39 0
-23 -47 0
-23 -55 0
-23 -63 0
-31 -7 0
-31 -15 0
-31 -23 0
-31 -39 0
-31 -47 0
-31 -55 0
-31 -63 0
-39 -7 0
-39 -15 0
-39 -23 0
-39 -31 0
-39 -47 0
-39 -55 0
-39 -63 0
-47 -7 0
-47 -15 0
-47 -23 0
-47 -31 0
-47 -39 0
-47 -55 0
-47 -63 0
-55 -7 0
-55 -15 0
-55 -23 0
-55 -31 0
-55 -39 0
-55 -47 0
-55 -63 0
-63 -7 0
-63 -15 0
-63 -23 0
-63 -31 0
-63 -39 0
-63 -47 0
-63 -55 0
-8 -16 0
-8 -24 0
-8 -32 0
-8 -40 0
-8 -48 0
-8 -56 0
-8 -64 0
-16 -8 0
-16 -24 0
-16 -32 0
-16 -40 0
-16 -48 0
-16 -56 0
-16 -64 0
-24 -8 0
-24 -16 0
-24 -32 0
-24 -40 0
-24 -48 0
-24 -56 0
-24 -64 0
-32 -8 0
-32 -16 0
-32 -24 0
-32 -40 0
-32 -48 0
-32 -56 0
-32 -64 0
-40 -8 0
-40 -16 0
-40 -24 0
-40 -32 0
-40 -48 0
-40 -56 0
-40 -64 0
-48 -8 0
-48 -16 0
-48 -24 0
-48 -32 0
-48 -40 0
-48 -56 0
-48 -64 0
-56 -8 0
-56 -16 0
-56 -24 0
-56 -32 0
-56 -40 0
-56 -48 0
-56 -64 0
-64 -8 0
-64 -16 0
-64 -24 0
-64 -32 0
-64 -40 0
-64 -48 0
-64 -56 0
-3 -1 0
-4 -2 0
-5 -3 0
-6 -4 0
-7 -5 0
-8 -6 0
-2 -9 0
-3 -10 0
-4 -9 0
-4 -11 0
-5 -10 0
-5 -12 0
-6 -11 0
-6 -13 0
-7 -12 0
-7 -14 0
-8 -13 0
-8 -15 0
-1 -17 0
-2 -18 0
-3 -19 0
-4 -20 0
-5 -17 0
-5 -21 0
-6 -18 0
-6 -22 0
-7 -19 0
-7 -23 0
-8 -20 0
-8 -24 0
-1 -26 0
-2 -27 0
-3 -28 0
-4 -29 0
-5 -30 0
-6 -25 0
-6 -31 0
-7 -26 0
-7 -32 0
-8 -27 0
-1 -35 0
-2 -36 0
-3 -37 0
-4 -38 0
-5 -39 0
-6 -40 0
-7 -33 0
-8 -34 0
-1 -44 0
-2 -45 0
-3 -46 0
-4 -47 0
-5 -48 0
-8 -41 0
-1 -53 0
-2 -54 0
-3 -55 0
-4 -56 0
-1 -62 0
-2 -63 0
-3 -64 0
-10 -1 0
-11 -2 0
-12 -1 0
-12 -3 0
-13 -2 0
-13 -4 0
-14 -3 0
-14 -5 0
-15 -4 0
-15 -6 0
-16 -5 0
-16 -7 0
-11 -9 0
-12 -10 0
-13 -11 0
-14 -12 0
-15 -13 0
-16 -14 0
-10 -17 0
-11 -18 0
-12 -17 0
-12 -19 0
-13 -18 0
-13 -20 0
-14 -19 0
-14 -21 0
-15 -20 0
-15 -22 0
-16 -21 0
-16 -23 0
-9 -25 0
-10 -26 0
-11 -27 0
-12 -28 0
-13 -25 0
-13 -29 0
-14 -26 0
-14 -30 0
-15 -27 0
-15 -31 0
-16 -28 0
-16 -32 0
-9 -34 0
-10 -35 0
-11 -36 0
-12 -37 0
-13 -38 0
-14 -33 0
-14 -39 0
-15 -34 0
-15 -40 0
-16 -35 0
-9 -43 0
-10 -44 0
-11 -45 0
-12 -46 0
-13 -47 0
-14 -48 0
-15 -41 0
-16 -42 0
-9 -52 0
-10 -53 0
-11 -54 0
-12 -55 0
-13 -56 0
-16 -49 0
-9 -61 0
-10 -62 0
-11 -63 0
-12 -64 0
-17 -1 0
-18 -2 0
-19 -3 0
-20 -4 0
-21 -1 0
-21 -5 0
-22 -2 0
-22 -6 0
-23 -3 0
-23 -7 0
-24 -4 0
-24 -8 0
-18 -9 0
-19 -10 0
-20 -9 0
-20 -11 0
-21 -10 0
-21 -12 0
-22 -11 0
-22 -13 0
-23 -12 0
-23 -14 0
-24 -13 0
-24 -15 0
-19 -17 0
-20 -18 0
-21 -19 0
-22 -20 0
-23 -21 0
-24 -22 0
-18 -25 0
-19 -26 0
-20 -25 0
-20 -27 0
-21 -26 0
-21 -28 0
-22 -27 0
-22 -29 0
-23 -28 0
-23 -30 0
-24 -29 0
-24 -31 0
-17 -33 0
-18 -34 0
-19 -35 0
-20 -36 0
-21 -33 0
-21 -37 0
-22 -34 0
-22 -38 0
-23 -35 0
-23 -39 0
-24 -36 0
-24 -40 0
-17 -42 0
-18 -43 0
-19 -44 0
-20 -45 0
-21 -46 0
-22 -41 0
-22 -47 0
-23 -42 0
-23 -48 0
-24 -43 0
-17 -51 0
-18 -52 0
-19 -53 0
-20 -54 0
-21 -55 0
-22 -56 0
-23 -49 0
-24 -50 0
-17 -60 0
-18 -61 0
-19 -62 0
-20 -63 0
-21 -64 0
-24 -57 0
-25 -2 0
-26 -3 0
-27 -4 0
-28 -5 0
-29 -6 0
-30 -1 0
-30 -7 0
-31 -2 0
-31 -8 0
-32 -3 0
-25 -9 0
-26 -10 0
-27 -11 0
-28 -12 0
-29 -9 0
-29 -13 0
-30 -10 0
-30 -14 0
-31 -11 0
-31 -15 0
-32 -12 0
-32 -16 0
-26 -17 0
-27 -18 0
-28 -17 0
-28 -19 0
-29 -18 0
-29 -20 0
-30 -19 0
-30 -21 0
-31 -20 0
-31 -22 0
-32 -21 0
-32 -23 0
-27 -25 0
-28 -26 0
-29 -27 0
-30 -28 0
-31 -29 0
-32 -30 0
-26 -33 0
-27 -34 0
-28 -33 0
-28 -35 0
-29 -34 0
-29 -36 0
-30 -35 0
-30 -37 0
-31 -36 0
-31 -38 0
-32 -37 0
-32 -39 0
-25 -41 0
-26 -42 0
-27 -43 0
-28 -44 0
-29 -41 0
-29 -45 0
-30 -42 0
-30 -46 0
-31 -43 0
-31 -47 0
-32 -44 0
-32 -48 0
-25 -50 0
-26 -51 0
-27 -52 0
-28 -53 0
-29 -54 0
-30 -49 0
-30 -55 0
-31 -50 0
-31 -56 0
-32 -51 0
-25 -59 0
-26 -60 0
-27 -61 0
-28 -62 0
-29 -63 0
-30 -64 0
-31 -57 0
-32 -58 0
-33 -3 0
-34 -4 0
-35 -5 0
-36 -6 0
-37 -7 0
-38 -8 0
-39 -1 0
-40 -2 0
-33 -10 0
-34 -11 0
-35 -12 0
-36 -13 0
-37 -14 0
-38 -9 0
-38 -15 0
-39 -10 0
-39 -16 0
-40 -11 0
-33 -17 0
-34 -18 0
-35 -19 0
-36 -20 0
-37 -17 0
-37 -21 0
-38 -18 0
-38 -22 0
-39 -19 0
-39 -23 0
-40 -20 0
-40 -24 0
-34 -25 0
-35 -26 0
-36 -25 0
-36 -27 0
-37 -26 0
-37 -28 0
-38 -27 0
-38 -29 0
-39 -28 0
-39 -30 0
-40 -29 0
-40 -31 0
-35 -33 0
-36 -34 0
-37 -35 0
-38 -36 0
-39 -37 0
-40 -38 0
-34 -41 0
-35 -42 0
-36 -41 0
-36 -43 0
-37 -42 0
-37 -44 0
-38 -43 0
-38 -45 0
-39 -44 0
-39 -46 0
-40 -45 0
-40 -47 0
-33 -49 0
-34 -50 0
-35 -51 0
-36 -52 0
-37 -49 0
-37 -53 0
-38 -50 0
-38 -54 0
-39 -51 0
-39 -55 0
-40 -52 0
-40 -56 0
-33 -58 0
-34 -59 0
-35 -60 0
-36 -61 0
-37 -62 0
-38 -57 0
-38 -63 0
-39 -58 0
-39 -64 0
-40 -59 0
-41 -4 0
-42 -5 0
-43 -6 0
-44 -7 0
-45 -8 0
-48 -1 0
-41 -11 0
-42 -12 0
-43 -13 0
-44 -14 0
-45 -15 0
-46 -16 0
-47 -9 0
-48 -10 0
-41 -18 0
-42 -19 0
-43 -20 0
-44 -21 0
-45 -22 0
-46 -17 0
-46 -23 0
-47 -18 0
-47 -24 0
-48 -19 0
-41 -25 0
-42 -26 0
-43 -27 0
-44 -28 0
-45 -25 0
-45 -29 0
-46 -26 0
-46 -30 0
-47 -27 0
-47 -31 0
-48 -28 0
-48 -32 0
-42 -33 0
-43 -34 0
-44 -33 0
-44 -35 0
-45 -34 0
-45 -36 0
-46 -35 0
-46 -37 0
-47 -36 0
-47 -38 0
-48 -37 0
-48 -39 0
-43 -41 0
-44 -42 0
-45 -43 0
-46 -44 0
-47 -45 0
-48 -46 0
-42 -49 0
-43 -50 0
-44 -49 0
-44 -51 0
-45 -50 0
-45 -52 0
-46 -51 0
-46 -53 0
-47 -52 0
-47 -54 0
-48 -53 0
-48 -55 0
-41 -57 0
-42 -58 0
-43 -59 0
-44 -60 0
-45 -57 0
-45 -61 0
-46 -58 0
-46 -62 0
-47 -59 0
-47 -63 0
-48 -60 0
-48 -64 0
-49 -5 0
-50 -6 0
-51 -7 0
-52 -8 0
-49 -12 0
-50 -13 0
-51 -14 0
-52 -15 0
-53 -16 0
-56 -9 0
-49 -19 0
-50 -20 0
-51 -21 0
-52 -22 0
-53 -23 0
-54 -24 0
-55 -17 0
-56 -18 0
-49 -26 0
-50 -27 0
-51 -28 0
-52 -29 0
-53 -30 0
-54 -25 0
-54 -31 0
-55 -26 0
-55 -32 0
-56 -27 0
-49 -33 0
-50 -34 0
-51 -35 0
-52 -36 0
-53 -33 0
-53 -37 0
-54 -34 0
-54 -38 0
-55 -35 0
-55 -39 0
-56 -36 0
-56 -40 0
-50 -41 0
-51 -42 0
-52 -41 0
-52 -43 0
-53 -42 0
-53 -44 0
-54 -43 0
-54 -45 0
-55 -44 0
-55 -46 0
-56 -45 0
-56 -47 0
-51 -49 0
-52 -50 0
-53 -51 0
-54 -52 0
-55 -53 0
-56 -54 0
-50 -57 0
-51 -58 0
-52 -57 0
-52 -59 0
-53 -58 0
-53 -60 0
-54 -59 0
-54 -61 0
-55 -60 0
-55 -62 0
-56 -61 0
-56 -63 0
-57 -6 0
-58 -7 0
-59 -8 0
-57 -13 0
-58 -14 0
-59 -15 0
-60 -16 0
-57 -20 0
-58 -21 0
-59 -22 0
-60 -23 0
-61 -24 0
-64 -17 0
-57 -27 0
-58 -28 0
-59 -29 0
-60 -30 0
-61 -31 0
-62 -32 0
-63 -25 0
-64 -26 0
-57 -34 0
-58 -35 0
-59 -36 0
-60 -37 0
-61 -38 0
-62 -33 0
-62 -39 0
-63 -34 0
-63 -40 0
-64 -35 0
-57 -41 0
-58 -42 0
-59 -43 0
-60 -44 0
-61 -41 0
-61 -45 0
-62 -42 0
-62 -46 0
-63 -43 0
-63 -47 0
-64 -44 0
-64 -48 0
-58 -49 0
-59 -50 0
-60 -49 0
-60 -51 0
-61 -50 0
-61 -52 0
-62 -51 0
-62 -53 0
-63 -52 0
-63 -54 0
-64 -53 0
-64 -55 0
-59 -57 0
-60 -58 0
-61 -59 0
-62 -60 0
-63 -61 0
-64 -62 0
